c Grid graph 3x24
p edge 72 117
e 1 2
e 1 25
e 2 3
e 2 26
e 3 4
e 3 27
e 4 5
e 4 28
e 5 6
e 5 29
e 6 7
e 6 30
e 7 8
e 7 31
e 8 9
e 8 32
e 9 10
e 9 33
e 10 11
e 10 34
e 11 12
e 11 35
e 12 13
e 12 36
e 13 14
e 13 37
e 14 15
e 14 38
e 15 16
e 15 39
e 16 17
e 16 40
e 17 18
e 17 41
e 18 19
e 18 42
e 19 20
e 19 43
e 20 21
e 20 44
e 21 22
e 21 45
e 22 23
e 22 46
e 23 24
e 23 47
e 24 48
e 25 26
e 25 49
e 26 27
e 26 50
e 27 28
e 27 51
e 28 29
e 28 52
e 29 30
e 29 53
e 30 31
e 30 54
e 31 32
e 31 55
e 32 33
e 32 56
e 33 34
e 33 57
e 34 35
e 34 58
e 35 36
e 35 59
e 36 37
e 36 60
e 37 38
e 37 61
e 38 39
e 38 62
e 39 40
e 39 63
e 40 41
e 40 64
e 41 42
e 41 65
e 42 43
e 42 66
e 43 44
e 43 67
e 44 45
e 44 68
e 45 46
e 45 69
e 46 47
e 46 70
e 47 48
e 47 71
e 48 72
e 49 50
e 50 51
e 51 52
e 52 53
e 53 54
e 54 55
e 55 56
e 56 57
e 57 58
e 58 59
e 59 60
e 60 61
e 61 62
e 62 63
e 63 64
e 64 65
e 65 66
e 66 67
e 67 68
e 68 69
e 69 70
e 70 71
e 71 72
